13293
1 0 1 0 0 1 1 0 0 0 0 1 0 0 1 0 0 1 0 0 1 0 0 0 0 1 0 0 0 0 
20 11 20 2 20 5 2 5 14 17 25 20 14 20 17 14 17 17 25 11 2 0 25 17 11 20 2 5 5 25 25 25 6 25 20 20 5 25 0 14 0 14 5 2 5 14 0 20 11 14 25 2 14 5 6 20 17 11 0 14 0 5 20 11 11 11 25 0 25 25 14 6 11 17 5 20 5 20 2 25 20 0 20 17 17 17 17 0 20 25 2 5 17 11 17 25 2 2 11 6 20 17 17 25 2 25 17 11 14 14 14 2 2 11 11 11 5 5 5 5 5 14 25 20 20 0 25 11 0 11 0 11 5 11 14 14 17 25 20 17 0 14 20 14 14 25 25 5 2 5 
